
Gurobi 9.1.2 (linux64) logging started Wed Jun 30 11:34:40 2021


Gurobi 9.1.2 (linux64) logging started Wed Jun 30 11:34:43 2021

Gurobi Optimizer version 9.1.2 build v9.1.2rc0 (linux64)
Thread count: 24 physical cores, 24 logical processors, using up to 24 threads
Optimize a model with 64962 rows, 25295 columns and 186507 nonzeros
Model fingerprint: 0xed80b702
Coefficient statistics:
  Matrix range     [3e-04, 5e+00]
  Objective range  [2e+01, 4e+05]
  Bounds range     [1e+03, 8e+06]
  RHS range        [6e+00, 1e+09]
Presolve removed 5821 rows and 19080 columns
Presolve time: 0.11s
Presolved: 19474 rows, 45882 columns, 150035 nonzeros
Ordering time: 2.40s

Barrier statistics:
 Dense cols : 2
 Free vars  : 2184
 AA' NZ     : 2.059e+05
 Factor NZ  : 1.494e+06 (roughly 40 MBytes of memory)
 Factor Ops : 2.190e+08 (less than 1 second per iteration)
 Threads    : 24

                  Objective                Residual
Iter       Primal          Dual         Primal    Dual     Compl     Time
   0  -9.88014776e+15  7.49680135e+13  3.32e+07 9.21e+07  2.47e+13     4s
   1  -4.50618854e+15  3.41372800e+15  9.68e+06 9.56e+07  7.40e+12     4s
   2  -1.91178828e+15  4.93170052e+15  2.47e+06 2.89e+07  2.13e+12     5s
   3  -7.53885241e+14  5.13246587e+15  7.26e+05 9.68e+06  6.93e+11     6s
   4  -3.11119587e+14  3.74914184e+15  1.65e+05 2.38e+06  1.92e+11     7s
   5  -1.36705739e+14  1.71032138e+15  3.78e+04 5.91e+05  5.43e+10     8s
   6  -5.17204615e+13  5.25361170e+14  1.88e+03 1.19e+05  1.20e+10     8s
   7  -6.96680970e+12  8.30237822e+13  1.33e-01 1.83e+04  1.77e+09     9s
   8  -1.82547659e+12  1.90414233e+13  3.41e-02 3.79e+03  3.94e+08    10s
   9  -2.27875209e+12  1.36659852e+13  3.00e-02 2.67e+03  2.97e+08    11s
  10  -6.94035372e+11  4.70473011e+12  8.84e-03 7.24e+02  9.62e+07    11s
  11  -3.95466660e+11  2.33918819e+12  4.59e-03 3.47e+02  4.80e+07    12s
  12  -2.24105777e+11  6.91034733e+11  2.72e-03 8.79e+01  1.58e+07    13s
  13  -1.14446228e+11  4.54297285e+11  1.55e-03 5.35e+01  9.76e+06    13s
  14  -1.91325309e+10  2.02243851e+11  5.06e-04 2.01e+01  3.78e+06    14s
  15   1.92882247e+10  1.24734579e+11  2.50e-04 9.20e+00  1.79e+06    15s
  16   3.83774360e+10  8.93104256e+10  1.18e-04 4.00e+00  8.65e+05    16s
  17   4.58698446e+10  7.85328749e+10  6.87e-05 2.64e+00  5.55e+05    17s
  18   4.82796017e+10  7.52634397e+10  4.83e-05 2.25e+00  4.58e+05    17s
  19   4.91485784e+10  7.03294667e+10  4.24e-05 1.67e+00  3.59e+05    18s
  20   5.10945824e+10  6.44521974e+10  2.80e-05 1.00e+00  2.27e+05    19s
  21   5.19597167e+10  6.07124480e+10  2.40e-05 5.83e-01  1.48e+05    19s
  22   5.34133452e+10  5.89624808e+10  1.39e-05 3.91e-01  9.41e+04    20s
  23   5.39506807e+10  5.77229215e+10  8.77e-06 2.62e-01  6.40e+04    21s
  24   5.43512462e+10  5.70281847e+10  5.88e-06 2.12e-01  4.54e+04    22s
  25   5.45826868e+10  5.65839577e+10  5.26e-06 1.80e-01  3.40e+04    22s
  26   5.47474281e+10  5.60747532e+10  3.15e-06 1.47e-01  2.25e+04    23s
  27   5.48883216e+10  5.57889106e+10  3.91e-06 1.24e-01  1.53e+04    24s
  28   5.49627676e+10  5.55759695e+10  3.01e-06 9.65e-02  1.04e+04    25s
  29   5.50031683e+10  5.54705020e+10  3.12e-06 8.06e-02  7.94e+03    25s
  30   5.50348503e+10  5.53667575e+10  6.23e-06 6.71e-02  5.64e+03    26s
  31   5.50540248e+10  5.52779304e+10  5.90e-06 5.91e-02  3.80e+03    27s
  32   5.50689328e+10  5.52190577e+10  7.64e-06 5.24e-02  2.55e+03    28s
  33   5.50894631e+10  5.51938306e+10  8.74e-06 5.05e-02  1.77e+03    29s
  34   5.51031665e+10  5.51655002e+10  3.59e-05 5.18e-02  1.06e+03    29s
  35   5.51083083e+10  5.51517647e+10  2.28e-05 5.31e-02  7.42e+02    30s
  36   5.51124630e+10  5.51448104e+10  9.94e-06 5.24e-02  5.54e+02    31s
  37   5.51143185e+10  5.51374674e+10  1.28e-05 4.41e-02  3.98e+02    32s
  38   5.51171304e+10  5.51325381e+10  1.80e-05 3.34e-02  2.66e+02    34s
  39   5.51188417e+10  5.51288230e+10  1.31e-05 2.46e-02  1.73e+02    35s
  40   5.51197160e+10  5.51251947e+10  3.02e-05 1.69e-02  9.60e+01    37s
  41   5.51200862e+10  5.51229974e+10  1.96e-05 1.16e-02  5.14e+01    39s
  42   5.51203518e+10  5.51224742e+10  4.39e-05 1.16e-02  3.79e+01    41s
  43   5.51206215e+10  5.51215802e+10  1.44e-05 1.17e-02  1.78e+01    42s
  44   5.51207443e+10  5.51212064e+10  1.14e-05 1.17e-02  9.20e+00    43s
  45   5.51207673e+10  5.51209543e+10  9.09e-06 1.17e-02  4.44e+00    44s
  46   5.51207937e+10  5.51207899e+10  1.48e-05 1.17e-02  1.17e+00    45s
  47   5.51207973e+10  5.51207291e+10  1.13e-04 1.17e-02  6.99e-02    46s
  48   5.51207995e+10  5.51207259e+10  1.17e-05 1.17e-02  3.42e-04    47s
  49   5.51207995e+10  5.51207259e+10  1.43e-04 1.17e-02  3.42e-04    48s

Barrier solved model in 49 iterations and 48.45 seconds
Optimal objective 5.51207995e+10


User-callback calls 1501, time in user-callback 0.01 sec

Gurobi 9.1.2 (linux64) logging started Tue Jul  6 20:04:52 2021


Gurobi 9.1.2 (linux64) logging started Tue Jul  6 20:04:54 2021

Gurobi Optimizer version 9.1.2 build v9.1.2rc0 (linux64)
Thread count: 40 physical cores, 40 logical processors, using up to 32 threads
Optimize a model with 59682 rows, 25295 columns and 179891 nonzeros
Model fingerprint: 0xb1e08637
Coefficient statistics:
  Matrix range     [3e-04, 5e+00]
  Objective range  [2e+01, 4e+05]
  Bounds range     [1e+03, 8e+06]
  RHS range        [6e+00, 3e+07]

Concurrent LP optimizer: primal simplex, dual simplex, and barrier
Showing barrier log only...

Presolve removed 18495 rows and 6517 columns
Presolve removed 7803 rows and 15813 columns
Presolve time: 0.59s
Presolved: 17492 rows, 43869 columns, 154730 nonzeros

Ordering time: 2.77s

Barrier statistics:
 Dense cols : 2
 Free vars  : 310
 AA' NZ     : 1.937e+05
 Factor NZ  : 1.459e+06 (roughly 40 MBytes of memory)
 Factor Ops : 2.224e+08 (less than 1 second per iteration)
 Threads    : 30

                  Objective                Residual
Iter       Primal          Dual         Primal    Dual     Compl     Time
   0  -2.30398674e+14 -1.15004155e+12  1.40e+07 2.20e+06  1.83e+12     4s
   1  -9.13297936e+13  5.73472360e+14  3.94e+06 1.97e+07  5.40e+11     5s
   2  -6.67325192e+13  7.48256939e+14  1.66e+06 6.88e+06  2.26e+11     6s
   3  -1.04208034e+14  7.26553324e+14  4.02e+05 2.77e+06  7.02e+10     8s
   4  -7.52591678e+13  5.31492440e+14  3.82e+04 1.18e+06  1.98e+10     9s
   5  -4.06049374e+13  1.97823360e+14  1.28e+04 2.74e+05  5.96e+09    10s
   6  -6.01240136e+12  6.55667215e+13  1.75e+02 8.14e+04  1.56e+09    10s
   7  -1.93633004e+12  3.59068191e+13  3.10e+01 4.17e+04  7.97e+08    11s
   8  -1.64020438e+12  1.18109470e+13  2.57e+01 1.18e+04  2.71e+08    12s
   9  -1.76738492e+12  7.28270675e+12  2.51e+01 7.21e+03  1.80e+08    13s
  10  -3.19579128e+11  2.52833684e+12  5.61e-02 2.30e+03  5.31e+07    14s
  11  -8.78577033e+10  7.59690263e+11  1.12e-02 6.39e+02  1.54e+07    15s
  12  -2.77722748e+10  2.85117517e+11  4.89e-03 2.13e+02  5.60e+06    16s
  13   6.44917948e+09  1.63762569e+11  2.54e-03 1.02e+02  2.80e+06    17s
  14   2.38148715e+10  1.27617127e+11  1.55e-03 6.79e+01  1.84e+06    18s
  15   3.87827798e+10  1.02103628e+11  8.30e-04 4.39e+01  1.13e+06    18s
  16   4.54745532e+10  8.32490916e+10  4.97e-04 2.53e+01  6.70e+05    19s
  17   4.81401311e+10  7.76223310e+10  3.64e-04 2.00e+01  5.23e+05    20s
  18   5.03006713e+10  6.87680052e+10  2.73e-04 1.18e+01  3.27e+05    22s
  19   5.10201543e+10  6.53511624e+10  2.28e-04 8.76e+00  2.53e+05    23s
  20   5.20567592e+10  6.37408248e+10  1.68e-04 7.29e+00  2.07e+05    24s
  21   5.26480766e+10  6.19664197e+10  1.31e-04 5.73e+00  1.65e+05    25s
  22   5.32782137e+10  6.09341485e+10  9.69e-05 4.83e+00  1.35e+05    26s
  23   5.34962652e+10  5.91320517e+10  8.31e-05 3.31e+00  9.95e+04    27s
  24   5.37128645e+10  5.81224265e+10  7.30e-05 2.46e+00  7.78e+04    28s
  25   5.41729384e+10  5.71515341e+10  4.42e-05 1.64e+00  5.25e+04    29s
  26   5.45151575e+10  5.66158948e+10  2.65e-05 1.20e+00  3.71e+04    30s
  27   5.46611618e+10  5.62753621e+10  1.87e-05 9.17e-01  2.85e+04    31s
  28   5.47903829e+10  5.58937929e+10  1.25e-05 6.21e-01  1.95e+04    32s
  29   5.48568186e+10  5.57160292e+10  9.39e-06 4.76e-01  1.52e+04    33s
  30   5.49200210e+10  5.54712301e+10  7.48e-06 2.86e-01  9.71e+03    34s
  31   5.49777400e+10  5.53592807e+10  4.94e-06 1.96e-01  6.72e+03    35s
  32   5.50041510e+10  5.52881743e+10  4.02e-06 1.41e-01  5.00e+03    36s
  33   5.50415480e+10  5.52270586e+10  7.17e-06 9.44e-02  3.27e+03    38s
  34   5.50541900e+10  5.51909377e+10  1.19e-05 8.15e-02  2.41e+03    38s
  35   5.50622678e+10  5.51722298e+10  5.75e-06 8.36e-02  1.94e+03    39s
  36   5.50728282e+10  5.51469305e+10  1.13e-05 8.34e-02  1.31e+03    40s
  37   5.50848465e+10  5.51240642e+10  9.37e-06 1.08e-01  6.94e+02    41s
  38   5.50889723e+10  5.51182936e+10  1.14e-05 1.15e-01  5.21e+02    42s
  39   5.50907804e+10  5.51115087e+10  9.09e-06 1.23e-01  3.69e+02    43s
  40   5.50921727e+10  5.51089370e+10  9.28e-06 1.28e-01  3.00e+02    44s
  41   5.50926400e+10  5.51053226e+10  9.69e-06 1.33e-01  2.27e+02    45s
  42   5.50928415e+10  5.51019761e+10  1.10e-05 1.39e-01  1.64e+02    46s
  43   5.50939431e+10  5.50998416e+10  7.48e-06 1.42e-01  1.08e+02    48s
  44   5.50946971e+10  5.50985943e+10  2.60e-06 1.44e-01  7.37e+01    49s
  45   5.50949762e+10  5.50971045e+10  2.59e-05 1.46e-01  4.25e+01    50s
  46   5.50952976e+10  5.50962833e+10  3.58e-05 1.47e-01  2.25e+01    52s
  47   5.50953466e+10  5.50962225e+10  6.12e-05 1.46e-01  2.09e+01    54s
  48   5.50954907e+10  5.50958527e+10  2.62e-05 1.47e-01  1.22e+01    55s
  49   5.50956399e+10  5.50954062e+10  1.90e-05 1.47e-01  2.07e+00    56s
  50   5.50956964e+10  5.50953121e+10  1.55e-05 1.47e-01  3.46e-02    58s
  51   5.50957306e+10  5.50953121e+10  8.76e-05 1.47e-01  3.33e-02    59s
  52   5.50957306e+10  5.50953121e+10  8.76e-05 1.47e-01  3.33e-02    60s
  53   5.50957306e+10  5.50953121e+10  8.76e-05 1.47e-01  3.33e-02    62s
  54   5.50957306e+10  5.50953121e+10  8.76e-05 1.47e-01  3.31e-02    64s
  55   5.50957306e+10  5.50953121e+10  8.76e-05 1.47e-01  3.31e-02    66s
  56   5.50957306e+10  5.50953121e+10  8.76e-05 1.47e-01  3.31e-02    68s
  57   5.50957306e+10  5.50953121e+10  8.76e-05 1.47e-01  3.31e-02    70s
  58   5.50957306e+10  5.50953121e+10  8.76e-05 1.47e-01  3.31e-02    72s
  59   5.50957306e+10  5.50953121e+10  8.76e-05 1.47e-01  3.31e-02    74s
  60   5.50957306e+10  5.50953121e+10  8.76e-05 1.47e-01  3.31e-02    76s

Barrier solved model in 60 iterations and 75.58 seconds
Optimal objective 5.50956964e+10

Crossover log...

    6926 DPushes remaining with DInf 0.0000000e+00                76s
    2761 DPushes remaining with DInf 0.0000000e+00                80s
    1792 DPushes remaining with DInf 0.0000000e+00                86s
     484 DPushes remaining with DInf 0.0000000e+00                90s
       0 DPushes remaining with DInf 0.0000000e+00                90s

   37001 PPushes remaining with PInf 8.3763069e-03                90s
       0 PPushes remaining with PInf 1.6848825e+05                92s

  Push phase complete: Pinf 1.6848825e+05, Dinf 9.2039661e+05     92s

Iteration    Objective       Primal Inf.    Dual Inf.      Time
   43241    5.5095939e+10   0.000000e+00   9.203966e+05     92s
Warning: 1 variables dropped from basis
Warning: switch to quad precision
Warning: 1 variables dropped from basis
   45160    5.5107494e+10   8.916785e+02   9.745546e+08     95s
Warning: 1 variables dropped from basis
   59049    5.5341443e+10   5.976399e+05   1.463031e+10    100s
   61485    2.8541795e+10   6.089612e+04   3.492183e+09    105s
   63847    2.5315385e+10   5.059248e+03   2.537640e+09    110s
   65207    2.6251052e+10   3.175530e+03   4.700992e+09    115s
   66183    2.7457331e+10   2.921476e+03   2.240791e+10    120s
   67035    2.8895766e+10   0.000000e+00   3.209479e+10    125s
   67755    3.1753713e+10   0.000000e+00   1.648018e+10    130s
   68475    3.5773583e+10   0.000000e+00   3.221332e+10    135s
   69335    4.1955537e+10   0.000000e+00   2.158723e+11    141s
   70017    4.3981337e+10   0.000000e+00   2.081697e+10    146s
   70517    4.5113120e+10   0.000000e+00   9.356104e+10    150s

Solved with dual simplex
Solved in 55602 iterations and 152.04 seconds
Optimal objective  5.511345583e+10

User-callback calls 74610, time in user-callback 0.10 sec
